p edge 64 512
e 1 22
e 1 18
e 1 36
e 1 49
e 1 34
e 1 51
e 1 7
e 1 32
e 1 13
e 1 5
e 1 37
e 1 33
e 1 30
e 1 46
e 1 41
e 1 15
e 1 61
e 1 35
e 2 39
e 2 23
e 2 20
e 2 49
e 2 27
e 2 53
e 2 24
e 2 64
e 2 13
e 2 58
e 2 18
e 3 48
e 3 40
e 3 6
e 3 59
e 3 63
e 3 57
e 3 31
e 3 23
e 3 38
e 3 61
e 3 60
e 3 55
e 3 52
e 3 50
e 3 45
e 4 61
e 4 18
e 4 55
e 4 57
e 4 51
e 4 49
e 4 17
e 4 7
e 4 56
e 4 16
e 5 46
e 5 47
e 5 39
e 5 45
e 5 62
e 5 33
e 5 49
e 5 23
e 5 13
e 5 42
e 5 34
e 5 14
e 5 11
e 5 17
e 6 35
e 6 44
e 6 26
e 6 32
e 6 39
e 6 59
e 6 18
e 6 37
e 6 7
e 6 36
e 6 51
e 6 24
e 6 34
e 6 19
e 6 62
e 6 53
e 6 31
e 6 47
e 7 39
e 7 55
e 7 62
e 7 14
e 7 20
e 7 11
e 7 33
e 7 61
e 7 27
e 7 34
e 7 47
e 7 59
e 7 19
e 8 11
e 8 44
e 8 41
e 8 42
e 8 22
e 8 37
e 8 38
e 8 46
e 8 32
e 8 28
e 8 39
e 8 30
e 8 21
e 8 53
e 8 55
e 8 24
e 9 25
e 9 39
e 9 53
e 9 44
e 9 23
e 9 55
e 9 40
e 9 42
e 9 31
e 9 30
e 9 15
e 9 21
e 9 14
e 10 55
e 10 37
e 10 12
e 10 58
e 10 49
e 10 48
e 10 25
e 10 51
e 10 43
e 10 34
e 11 55
e 11 43
e 11 32
e 11 64
e 11 53
e 11 17
e 11 46
e 11 45
e 11 19
e 11 47
e 11 38
e 11 44
e 11 49
e 11 25
e 12 26
e 12 54
e 12 49
e 12 32
e 12 46
e 12 62
e 12 52
e 12 21
e 12 58
e 12 39
e 12 35
e 12 50
e 13 55
e 13 36
e 13 44
e 13 59
e 13 60
e 13 40
e 13 53
e 13 58
e 14 26
e 14 45
e 14 35
e 14 60
e 14 40
e 14 56
e 14 63
e 14 52
e 14 46
e 14 49
e 15 51
e 15 48
e 15 56
e 15 28
e 15 21
e 15 60
e 15 49
e 15 62
e 15 54
e 16 34
e 16 22
e 16 52
e 16 54
e 16 21
e 16 23
e 16 27
e 16 49
e 16 60
e 16 33
e 16 26
e 16 57
e 16 32
e 16 38
e 16 62
e 17 54
e 17 60
e 17 36
e 17 18
e 17 49
e 17 61
e 17 50
e 17 27
e 17 45
e 17 37
e 18 56
e 18 43
e 18 47
e 18 39
e 18 35
e 18 45
e 18 25
e 18 22
e 18 38
e 18 57
e 18 31
e 18 61
e 18 48
e 18 27
e 19 30
e 19 63
e 19 48
e 19 44
e 19 45
e 19 32
e 19 33
e 19 26
e 19 59
e 19 60
e 19 34
e 20 49
e 20 25
e 20 31
e 20 42
e 20 57
e 20 50
e 20 24
e 20 37
e 20 55
e 20 40
e 20 44
e 20 32
e 21 61
e 21 23
e 21 51
e 21 32
e 21 39
e 21 59
e 21 37
e 21 57
e 21 33
e 21 56
e 21 36
e 21 42
e 21 22
e 21 50
e 21 38
e 21 45
e 21 34
e 22 42
e 22 57
e 22 31
e 22 29
e 22 47
e 22 54
e 22 63
e 22 60
e 22 37
e 22 34
e 22 59
e 23 49
e 23 51
e 23 57
e 23 62
e 23 54
e 23 45
e 23 47
e 23 31
e 23 33
e 23 40
e 23 59
e 23 60
e 23 53
e 24 63
e 24 35
e 24 50
e 24 47
e 24 43
e 24 48
e 24 36
e 24 30
e 24 31
e 25 62
e 25 58
e 25 57
e 25 46
e 25 54
e 25 39
e 25 63
e 25 31
e 25 45
e 25 51
e 26 54
e 26 27
e 26 33
e 26 51
e 26 47
e 26 60
e 26 45
e 26 37
e 26 31
e 26 34
e 26 43
e 26 35
e 26 59
e 27 59
e 27 63
e 27 56
e 27 39
e 27 49
e 27 48
e 27 44
e 27 30
e 27 60
e 27 34
e 28 61
e 28 64
e 28 40
e 28 63
e 28 58
e 29 62
e 29 34
e 29 60
e 29 48
e 29 35
e 29 40
e 29 54
e 30 33
e 30 49
e 30 36
e 30 38
e 30 45
e 30 44
e 30 59
e 30 50
e 31 44
e 31 48
e 31 50
e 31 38
e 31 49
e 31 62
e 31 55
e 31 37
e 31 60
e 32 61
e 32 59
e 32 35
e 32 45
e 32 41
e 32 44
e 32 64
e 32 50
e 32 38
e 33 56
e 33 57
e 33 61
e 33 52
e 33 58
e 34 38
e 34 45
e 34 41
e 34 51
e 34 57
e 34 50
e 34 53
e 34 44
e 34 40
e 34 60
e 34 43
e 35 55
e 35 41
e 35 44
e 35 59
e 35 64
e 35 38
e 35 36
e 35 53
e 35 39
e 36 43
e 36 48
e 36 53
e 36 39
e 36 42
e 36 51
e 36 60
e 37 42
e 37 45
e 37 47
e 37 38
e 37 57
e 37 63
e 37 53
e 37 44
e 37 61
e 38 40
e 38 63
e 38 54
e 38 62
e 38 57
e 39 55
e 39 46
e 39 58
e 40 63
e 40 44
e 40 49
e 40 58
e 40 56
e 40 50
e 40 52
e 41 60
e 41 51
e 41 48
e 41 64
e 41 61
e 41 57
e 41 58
e 41 55
e 41 49
e 42 53
e 42 47
e 42 54
e 42 44
e 42 50
e 42 51
e 43 44
e 43 55
e 44 54
e 44 58
e 44 59
e 44 47
e 44 61
e 44 51
e 44 56
e 45 56
e 45 52
e 45 50
e 45 61
e 45 47
e 45 54
e 46 60
e 46 51
e 46 59
e 46 62
e 46 58
e 47 58
e 47 59
e 47 55
e 48 52
e 48 51
e 48 59
e 48 58
e 48 61
e 48 64
e 48 63
e 49 63
e 49 62
e 49 56
e 49 59
e 49 53
e 50 54
e 50 51
e 50 59
e 51 58
e 51 61
e 51 63
e 51 56
e 51 64
e 52 55
e 52 56
e 52 57
e 53 64
e 53 58
e 53 62
e 54 62
e 54 56
e 54 59
e 54 58
e 55 61
e 55 60
e 55 59
e 56 57
e 56 64
e 56 59
e 56 62
e 56 60
e 57 60
e 58 62
e 58 59
e 59 60
e 60 61
e 61 63
